
Gurobi 12.0.2 (win64) logging started Mon Sep 15 14:21:13 2025

Set parameter LogFile to value "C:\Ioana\_uni\honours\slp\algorithm\Main_files\results\paracetamol with updated samples\Task_006_Sample007_irr_gurobi.log"
Gurobi Optimizer version 12.0.2 build v12.0.2rc0 (win64 - Windows 11.0 (26100.2))

CPU model: Intel(R) Core(TM) Ultra 5 125H, instruction set [SSE2|AVX|AVX2]
Thread count: 14 physical cores, 18 logical processors, using up to 18 threads

Non-default parameters:
TimeLimit  2200

Optimize a model with 47236 rows, 34517 columns and 146727 nonzeros
Model fingerprint: 0xbcc935f1
Variable types: 17268 continuous, 17249 integer (17249 binary)
Coefficient statistics:
  Matrix range     [1e-04, 8e+04]
  Objective range  [1e-04, 9e-01]
  Bounds range     [1e+00, 1e+03]
  RHS range        [1e+00, 1e+00]
Presolve removed 30813 rows and 21539 columns
Presolve time: 0.34s
Presolved: 16423 rows, 12978 columns, 54737 nonzeros
Variable types: 6426 continuous, 6552 integer (6552 binary)
Found heuristic solution: objective 11.0277342

Root relaxation: objective 9.201575e-01, 2505 iterations, 0.19 seconds (0.43 work units)

    Nodes    |    Current Node    |     Objective Bounds      |     Work
 Expl Unexpl |  Obj  Depth IntInf | Incumbent    BestBd   Gap | It/Node Time

     0     0    0.92016    0    2   11.02773    0.92016  91.7%     -    0s
H    0     0                       1.7995014    0.92016  48.9%     -    0s
H    0     0                       0.9643813    0.92016  4.59%     -    0s
     0     0    0.92016    0    2    0.96438    0.92016  4.59%     -    0s

Explored 1 nodes (2505 simplex iterations) in 0.64 seconds (0.91 work units)
Thread count was 18 (of 18 available processors)

Solution count 3: 0.964381 1.7995 11.0277 

Optimal solution found (tolerance 1.00e-04)
Best objective 9.643812701484e-01, best bound 9.643812701484e-01, gap 0.0000%
